(set-logic ALL)
(declare-fun i1 () Int)
(declare-fun it520 () Int)
(declare-fun it521 () Int)
(declare-fun i2 () Int)
(declare-fun it522 () Int)
(declare-fun i3 () Int)
(declare-fun it523 () Int)
(declare-fun i4 () Int)
(declare-fun it524 () Int)
(declare-fun i5 () Int)
(declare-fun it525 () Int)
(declare-fun i6 () Int)
(declare-fun it526 () Int)
(declare-fun i7 () Int)
(declare-fun it675 () Int)
(declare-fun it676 () Int)
(declare-fun it677 () Int)
(declare-fun it678 () Int)
(declare-fun it679 () Int)
(declare-fun it680 () Int)
(declare-fun it681 () Int)
(declare-fun it683 () Int)
(declare-fun it684 () Int)
(declare-fun it685 () Int)
(declare-fun it686 () Int)
(declare-fun it687 () Int)
(declare-fun it688 () Int)
(declare-fun it689 () Int)
(declare-fun it729 () Int)
(assert (= (+ i1 (- 1)) 0))
(assert (= (+ it520 (- 2)) 0))
(assert (= (+ (* i2 (- 1)) it521 (- 1)) 0))
(assert (= (+ (* i3 (- 1)) it522) 0))
(assert (= (+ (* i4 (- 1)) it523) 0))
(assert (= (+ (* i5 (- 1)) it524) 0))
(assert (= (+ (* i6 (- 1)) it525) 0))
(assert (= (+ (* i7 (- 1)) it526) 0))
(assert (and (<= (+ it525 (- 5)) 0)
     (<= (+ (* it525 (- 1)) (- 5)) 0)
     (> it522 0)
     (= (+ it520 (- 2)) 0)))
(assert (= (+ it675 (- 3)) 0))
(assert (= (+ (* it521 (- 1)) it676 (- 2)) 0))
(assert (= (+ it677 (* it522 (- 1))) 0))
(assert (= (+ it678 (* it522 (- 1))) 0))
(assert (= (+ (* it526 (- 1)) it679) 0))
(assert (= (+ it680 (* it525 (- 1))) 0))
(assert (= (+ it681 (* it526 (- 1))) 0))
(assert (let ((a!1 (< (+ (exp it678 2) (exp it680 5) (+ 0 (* it679 (- 1)))) (+ 0 0)))
      (a!2 (< (+ (* (exp it678 2) (+ 0 4))
                 (exp it680 5)
                 (+ 0 (* it679 (- 3)))
                 (* (exp it680 3) (+ 0 2)))
              (+ 0 0))))
  (and (= (+ it675 (- 3)) 0) a!1 a!2 (< (* it678 (- 2)) 0) (> it678 0))))
(assert (= (+ it683 (- 3)) 0))
(assert (= (+ it684 (* it676 (- 1)) (- 4)) 0))
(assert (= (+ (* it677 (- 1)) it685) 0))
(assert (= (+ it686 (* it678 (- 4))) 0))
(assert (let ((a!1 (+ (+ 0 (+ it687 (* it679 (- 9)))) (* (exp it680 3) (+ 0 8)))))
  (= a!1 (+ 0 0))))
(assert (= (+ (* it680 (- 1)) it688) 0))
(assert (= (+ (* it681 (- 1)) it689) 0))
(assert (let ((a!1 (* (* (+ 0 it687) (exp 81 (+ it729 (- 1)))) (+ 0 27)))
      (a!2 (* (exp it686 2) (exp (exp 16 (+ it729 (- 1))) (+ 0 2))))
      (a!3 (* (* (exp 81 (+ it729 (- 1))) (exp it688 3)) (+ 0 (- 27))))
      (a!5 (> (+ (+ 0 (* it687 3))
                 (* (exp it688 5) (+ 0 (- 1)))
                 (* (exp it688 3) (+ 0 (- 2)))
                 (* (exp it686 2) (+ 0 (- 4))))
              (+ 0 0)))
      (a!6 (> (+ (+ 0 it687)
                 (* (exp it688 5) (+ 0 (- 1)))
                 (* (exp it686 2) (+ 0 (- 1))))
              (+ 0 0)))
      (a!7 (> (+ (+ 0 (* it687 9))
                 (* (exp it688 5) (+ 0 (- 1)))
                 (* (exp it688 3) (+ 0 (- 8)))
                 (* (exp it686 2) (+ 0 (- 16))))
              (+ 0 0)))
      (a!8 (* (* (+ 0 it687) (exp 81 (+ it729 (- 1)))) (+ 0 3)))
      (a!9 (* (* (exp 81 (+ it729 (- 1))) (exp it688 3)) (+ 0 (- 3))))
      (a!11 (* (* (exp 81 (+ it729 (- 1))) (exp it688 3)) (+ 0 (- 1))))
      (a!13 (* (* (+ 0 it687) (exp 81 (+ it729 (- 1)))) (+ 0 9)))
      (a!14 (* (* (exp 81 (+ it729 (- 1))) (exp it688 3)) (+ 0 (- 9)))))
(let ((a!4 (> (+ a!1
                 (* (exp it688 5) (+ 0 (- 1)))
                 (exp it688 3)
                 (* a!2 (+ 0 (- 64)))
                 a!3)
              (+ 0 0)))
      (a!10 (> (+ a!8
                  (* (exp it688 5) (+ 0 (- 1)))
                  (exp it688 3)
                  (* a!2 (+ 0 (- 4)))
                  a!9)
               (+ 0 0)))
      (a!12 (+ (* (+ 0 it687) (exp 81 (+ it729 (- 1))))
               (* (exp it688 5) (+ 0 (- 1)))
               (exp it688 3)
               (* a!2 (+ 0 (- 1)))
               a!11))
      (a!15 (> (+ a!13
                  (* (exp it688 5) (+ 0 (- 1)))
                  (exp it688 3)
                  (* a!2 (+ 0 (- 16)))
                  a!14)
               (+ 0 0))))
  (and a!4
       a!5
       a!6
       (> (* it686 2) 0)
       a!7
       (>= (+ it729 (- 1)) 0)
       a!10
       (> a!12 (+ 0 0))
       (> it686 0)
       (>= (+ (* it683 (- 1)) 3) 0)
       (> (* it686 8) 0)
       a!15
       (> (* it686 4) 0)
       (>= (+ it683 (- 3)) 0)))))
(check-sat)
